25 71 166
1 8 2
1 13 5
1 17 3
1 18 2
1 23 1
2 5 5
2 7 5
2 13 3
2 15 4
2 16 5
2 20 2
3 6 2
3 7 3
3 10 2
3 11 4
3 13 2
3 16 4
3 24 4
4 6 1
4 9 3
4 11 1
4 15 2
4 16 3
4 18 5
4 23 3
5 6 5
5 7 4
5 8 1
5 11 4
5 12 1
5 16 2
5 21 1
5 24 2
6 8 4
6 12 3
6 17 4
6 18 5
6 25 4
7 9 2
7 12 1
7 18 4
8 14 5
8 18 2
8 20 5
8 21 2
9 15 2
9 19 5
9 22 3
10 15 1
10 19 5
10 21 3
10 22 3
11 17 4
11 18 2
11 23 2
12 17 2
14 15 4
15 25 2
16 20 2
16 22 2
16 24 1
17 18 4
17 24 2
18 25 2
19 22 1
19 25 3
20 22 5
21 22 1
21 24 3
22 23 4
24 25 4
